500
1000
627
626
625
625
624
623
619
619
618
617
616
616
614
614
613
612
611
608
608
607
607
607
603
602
602
602
602
599
599
599
596
593
593
593
592
591
591
590
589
589
588
586
586
585
584
584
583
582
581
581
580
577
575
572
571
569
567
566
565
564
563
562
562
562
561
561
561
561
559
558
557
557
556
553
550
550
549
549
547
546
545
544
542
540
539
539
538
536
535
535
535
531
531
529
529
527
526
526
523
520
520
519
517
516
513
512
512
512
512
511
511
510
508
507
506
506
505
505
504
503
503
499
499
499
497
496
494
493
490
489
489
487
487
487
482
480
480
480
478
476
475
472
469
468
467
466
466
466
464
464
462
460
460
459
458
457
457
454
453
453
452
451
451
449
448
446
445
443
443
442
442
440
440
439
439
438
437
436
434
432
431
431
429
428
425
425
423
423
423
422
422
420
419
419
418
417
416
415
415
413
413
411
410
408
408
406
397
397
393
392
388
385
384
381
381
380
380
379
379
377
377
376
375
375
374
373
373
373
370
369
368
367
366
365
364
363
363
363
362
360
359
355
353
351
348
347
346
346
344
342
341
340
340
338
337
336
336
335
334
333
332
331
330
330
329
329
328
328
328
326
325
324
322
322
321
319
319
318
318
318
316
314
313
312
311
308
307
304
303
301
300
298
294
292
292
292
291
289
286
285
285
283
279
278
275
270
270
270
269
269
268
267
265
264
263
262
259
255
254
252
251
247
245
243
243
241
241
239
239
235
232
232
231
229
229
228
228
225
224
218
217
217
215
213
212
211
211
210
210
208
207
203
202
201
201
201
200
200
198
198
198
196
195
194
194
193
192
191
191
191
191
191
191
189
189
188
187
185
185
182
181
180
180
179
178
176
176
175
175
174
170
169
167
167
166
164
164
164
163
163
161
159
159
157
157
156
156
156
148
148
148
146
145
145
144
143
142
139
137
136
133
131
130
129
128
127
126
124
124
122
121
120
117
116
116
115
115
113
112
110
109
107
104
103
101
101
100
99
99
98
98
97
97
97
97
96
94
94
94
92
91
91
91
91
90
88
87
85
85
84
83
82
82
81
80
79
77
76
74
73
71
67
67
63
61
60
60
56
54
51
50
48
46
45
43
42
40
40
39
36
